clingo version 5.4.0
Reading from clingo\rna_ss_prediction_E2.lp
Solving...
Answer: 1
seq(1,c) seq(2,c) seq(3,a) seq(4,a) seq(5,g) seq(6,a) seq(7,u) seq(8,g) seq(9,u) seq(10,g) seq(11,g) seq(12,a) seq(13,g) seq(14,g) seq(15,c) seq(16,u) seq(17,g) seq(18,g) seq(19,g) seq(20,g) seq(21,u) seq(22,c) seq(23,a) seq(24,g) contacts(0) energy2(2400)
Optimization: 2400
Answer: 2
seq(1,c) seq(2,c) seq(3,a) seq(4,a) seq(5,g) seq(6,a) seq(7,u) seq(8,g) seq(9,u) seq(10,g) seq(11,g) seq(12,a) seq(13,g) seq(14,g) seq(15,c) seq(16,u) seq(17,g) seq(18,g) seq(19,g) seq(20,g) seq(21,u) seq(22,c) seq(23,a) seq(24,g) pairing(9,24) pairing(24,9) pairing(10,21) pairing(21,10) pairing(11,16) pairing(16,11) contacts(6) energy2(2328)
Optimization: 2328
Answer: 3
seq(1,c) seq(2,c) seq(3,a) seq(4,a) seq(5,g) seq(6,a) seq(7,u) seq(8,g) seq(9,u) seq(10,g) seq(11,g) seq(12,a) seq(13,g) seq(14,g) seq(15,c) seq(16,u) seq(17,g) seq(18,g) seq(19,g) seq(20,g) seq(21,u) seq(22,c) seq(23,a) seq(24,g) pairing(9,24) pairing(24,9) pairing(10,21) pairing(21,10) pairing(13,16) pairing(16,13) pairing(5,7) pairing(7,5) contacts(8) energy2(2304)
Optimization: 2304
Answer: 4
seq(1,c) seq(2,c) seq(3,a) seq(4,a) seq(5,g) seq(6,a) seq(7,u) seq(8,g) seq(9,u) seq(10,g) seq(11,g) seq(12,a) seq(13,g) seq(14,g) seq(15,c) seq(16,u) seq(17,g) seq(18,g) seq(19,g) seq(20,g) seq(21,u) seq(22,c) seq(23,a) seq(24,g) pairing(22,24) pairing(24,22) pairing(12,21) pairing(21,12) pairing(15,20) pairing(20,15) pairing(16,19) pairing(19,16) pairing(1,11) pairing(11,1) pairing(2,10) pairing(10,2) pairing(4,9) pairing(9,4) pairing(5,7) pairing(7,5) contacts(16) energy2(1008)
Optimization: 1008
Answer: 5
seq(1,c) seq(2,c) seq(3,a) seq(4,a) seq(5,g) seq(6,a) seq(7,u) seq(8,g) seq(9,u) seq(10,g) seq(11,g) seq(12,a) seq(13,g) seq(14,g) seq(15,c) seq(16,u) seq(17,g) seq(18,g) seq(19,g) seq(20,g) seq(21,u) seq(22,c) seq(23,a) seq(24,g) pairing(22,24) pairing(24,22) pairing(19,21) pairing(21,19) pairing(1,18) pairing(18,1) pairing(2,17) pairing(17,2) pairing(3,16) pairing(16,3) pairing(13,15) pairing(15,13) pairing(9,12) pairing(12,9) pairing(4,7) pairing(7,4) contacts(16) energy2(848)
Optimization: 848
OPTIMUM FOUND

Models       : 5
  Optimum    : yes
Optimization : 848
Calls        : 1
Time         : 35.253s (Solving: 34.25s 1st Model: 0.05s Unsat: 32.87s)
CPU Time     : 35.250s